DIMENSION: 9
EDGE_WEIGHT_TYPE: EXPLICIT
EDGE_WEIGHT_FORMAT: FULL_MATRIX
EDGE_WEIGHT_SECTION:
32767 46 88 67 59 92 32767 32767 52 
46 32767 32767 100 32767 32767 60 68 32767 
88 32767 32767 95 19 59 24 32767 32767 
67 100 95 32767 32767 32767 32767 37 73 
59 32767 19 32767 32767 32767 6 32767 32767 
92 32767 59 32767 32767 32767 32767 32 32767 
32767 60 24 32767 6 32767 32767 43 81 
32767 68 32767 37 32767 32 43 32767 33 
52 32767 32767 73 32767 32767 81 33 32767 
EOF